p tw 80 1841 8 
1 9 
1 11 
2 7 
2 10 
2 12 
3 4 
3 5 
3 8 
3 10 
4 6 
4 7 
4 9 
5 6 
5 9 
5 10 
6 7 
6 8 
7 8 
7 9 
7 10 
8 9 
8 10 
9 10 
11 18 
11 19 
12 17 
12 20 
13 14 
13 18 
13 20 
13 23 
14 17 
14 19 
14 24 
15 16 
15 19 
15 20 
15 25 
16 17 
16 18 
16 26 
17 18 
17 19 
17 20 
18 19 
18 20 
19 20 
21 28 
21 29 
21 31 
22 27 
22 30 
22 32 
23 24 
23 28 
23 30 
24 27 
24 29 
25 26 
25 29 
25 30 
26 27 
26 28 
27 28 
27 29 
27 30 
28 29 
28 30 
29 30 
31 38 
31 39 
32 37 
32 40 
33 34 
33 38 
33 40 
33 43 
34 37 
34 39 
34 44 
35 36 
35 39 
35 40 
35 45 
36 37 
36 38 
36 46 
37 38 
37 39 
37 40 
38 39 
38 40 
39 40 
41 48 
41 49 
41 51 
42 47 
42 50 
42 52 
43 44 
43 48 
43 50 
44 47 
44 49 
45 46 
45 49 
45 50 
46 47 
46 48 
47 48 
47 49 
47 50 
48 49 
48 50 
49 50 
51 58 
51 59 
52 57 
52 60 
53 54 
53 58 
53 60 
53 63 
54 57 
54 59 
54 64 
55 56 
55 59 
55 60 
55 65 
56 57 
56 58 
56 66 
57 58 
57 59 
57 60 
58 59 
58 60 
59 60 
61 68 
61 69 
61 71 
62 67 
62 70 
62 72 
63 64 
63 68 
63 70 
64 67 
64 69 
65 66 
65 69 
65 70 
66 67 
66 68 
67 68 
67 69 
67 70 
68 69 
68 70 
69 70 
71 78 
71 79 
72 77 
72 80 
73 74 
73 75 
73 78 
73 80 
74 76 
74 77 
74 79 
75 76 
75 79 
75 80 
76 77 
76 78 
77 78 
77 79 
77 80 
78 79 
78 80 
79 80 
